
Gurobi 6.5.2 (linux64) logging started Mon Aug 29 10:57:55 2016

Optimize a model with 101 rows, 908 columns and 1903 nonzeros
Coefficient statistics:
  Matrix range    [1e+00, 2e+00]
  Objective range [1e+00, 1e+02]
  Bounds range    [1e+00, 1e+00]
  RHS range       [1e+00, 1e+00]
Found heuristic solution: objective 1756
Presolve removed 35 rows and 14 columns
Presolve time: 0.00s
Presolved: 66 rows, 894 columns, 1801 nonzeros
Variable types: 0 continuous, 894 integer (894 binary)

Root relaxation: objective 5.173000e+02, 72 iterations, 0.00 seconds

    Nodes    |    Current Node    |     Objective Bounds      |     Work
 Expl Unexpl |  Obj  Depth IntInf | Incumbent    BestBd   Gap | It/Node Time

     0     0  517.30000    0   28 1756.00000  517.30000  70.5%     -    0s
H    0     0                     680.0000000  517.30000  23.9%     -    0s
H    0     0                     569.0000000  517.30000  9.09%     -    0s
     0     0  534.20323    0   41  569.00000  534.20323  6.12%     -    0s
     0     0  534.20323    0   28  569.00000  534.20323  6.12%     -    0s
     0     0  535.05000    0   34  569.00000  535.05000  5.97%     -    0s
H    0     0                     559.0000000  535.05000  4.28%     -    0s
     0     0  539.75000    0   41  559.00000  539.75000  3.44%     -    0s
     0     0  539.75000    0   28  559.00000  539.75000  3.44%     -    0s
     0     0  539.75000    0   33  559.00000  539.75000  3.44%     -    0s
     0     0  540.80769    0   48  559.00000  540.80769  3.25%     -    0s
     0     0  541.80556    0   50  559.00000  541.80556  3.08%     -    0s
     0     0  541.84211    0   51  559.00000  541.84211  3.07%     -    0s
H    0     0                     548.0000000  541.84211  1.12%     -    0s
H    0     0                     547.0000000  541.84211  0.94%     -    0s
     0     0  542.34783    0   39  547.00000  542.34783  0.85%     -    0s
     0     0  542.34783    0   14  547.00000  542.34783  0.85%     -    0s
     0     0  542.34783    0   18  547.00000  542.34783  0.85%     -    0s
     0     0  542.34783    0   25  547.00000  542.34783  0.85%     -    0s
     0     0  545.50000    0    2  547.00000  545.50000  0.27%     -    0s

Cutting planes:
  Gomory: 6
  Cover: 12
  Clique: 5
  MIR: 3
  Zero half: 2

Explored 0 nodes (458 simplex iterations) in 0.10 seconds
Thread count was 8 (of 8 available processors)

Optimal solution found (tolerance 1.00e-04)
Best objective 5.470000000000e+02, best bound 5.470000000000e+02, gap 0.0%
